c description: Random 3-CNF over 15 variables and 30 clauses
p cnf 15 30
9 -11 -15 0
-3 7 10 0
-1 12 -13 0
-2 7 -13 0
-8 11 -15 0
1 5 13 0
7 12 15 0
-2 -8 -9 0
-1 -3 10 0
-1 -3 -13 0
2 -10 -11 0
9 14 15 0
-2 5 -12 0
-5 -8 -14 0
-1 6 -7 0
6 -9 -12 0
6 12 -13 0
2 -9 10 0
4 8 -9 0
9 12 14 0
-7 -10 -11 0
-1 -2 -3 0
6 -11 13 0
3 -7 -11 0
-7 -8 13 0
-1 -6 -10 0
1 -6 11 0
-12 -13 -15 0
-1 -13 -14 0
-5 -7 13 0